
Gurobi 9.5.0 (linux64) logging started Fri Nov 24 17:11:32 2023

Set parameter LogFile to value "/lustre1/scratch/348/vsc34888/JointResearch/05.Models/06.Benchmarking/E.Representative_days_based_on_Line_Benefits_OptModel/RTS24_mod1_ByStages_nc10/openStarNet_RTS24_mod1_ByStages_nc10.log"
Set parameter Method to value 2
Set parameter MIPFocus to value 1
Set parameter Presolve to value 2
Set parameter RINS to value 100
Set parameter MIPGap to value 0.01
Set parameter Threads to value 36
Set parameter TimeLimit to value 259200
Set parameter IterationLimit to value 760000000
Gurobi Optimizer version 9.5.0 build v9.5.0rc5 (linux64)
Thread count: 36 physical cores, 36 logical processors, using up to 36 threads
Optimize a model with 3908 rows, 2662 columns and 10657 nonzeros
Model fingerprint: 0x65894ca8
Variable types: 2641 continuous, 21 integer (21 binary)
Coefficient statistics:
  Matrix range     [1e-03, 2e+03]
  Objective range  [1e+00, 1e+00]
  Bounds range     [6e-05, 2e+00]
  RHS range        [6e-05, 2e+00]
Presolve removed 2327 rows and 1342 columns
Presolve time: 0.03s
Presolved: 1581 rows, 1320 columns, 5707 nonzeros
Variable types: 1299 continuous, 21 integer (21 binary)
Found heuristic solution: objective 102.1705263
Root relaxation presolve removed 3 rows and 3 columns
Root relaxation presolved: 1578 rows, 1317 columns, 5701 nonzeros

Root barrier log...

Ordering time: 0.02s

Barrier statistics:
 AA' NZ     : 2.815e+04
 Factor NZ  : 1.411e+05 (roughly 2 MB of memory)
 Factor Ops : 1.971e+07 (less than 1 second per iteration)
 Threads    : 36

                  Objective                Residual
Iter       Primal          Dual         Primal    Dual     Compl     Time
   0   5.79279127e+05 -3.81991387e+07  4.88e+00 1.21e+03  2.80e+04     0s
   1   4.66304034e+04 -9.37242081e+06  4.06e-01 6.88e-11  3.32e+03     0s
   2   2.00606043e+04 -7.10954309e+06  1.56e-01 2.27e-11  2.17e+03     0s
   3   6.60987835e+03 -8.44552209e+05  1.31e-02 3.74e-11  2.35e+02     0s
   4   3.89398279e+03 -3.50044055e+04  1.61e-13 3.29e-10  1.05e+01     0s
   5   6.45381057e+02 -4.99667316e+03  2.58e-13 3.79e-11  1.52e+00     0s
   6   3.77474596e+02 -1.61515085e+03  7.06e-14 1.15e-11  5.36e-01     0s
   7   3.04645330e+02 -8.83611160e+02  6.86e-14 6.48e-12  3.20e-01     0s
   8   1.15146114e+02 -1.72580211e+02  1.23e-13 7.28e-12  7.74e-02     0s
   9   8.01753629e+01  4.08177928e+00  3.84e-13 3.64e-12  2.05e-02     0s
  10   6.81603816e+01  4.66798505e+01  3.78e-13 3.64e-12  5.78e-03     0s
  11   6.51443706e+01  5.58655461e+01  7.93e-13 3.64e-12  2.50e-03     0s
  12   6.29887007e+01  5.81222804e+01  9.51e-13 3.64e-12  1.31e-03     0s
  13   6.19981641e+01  6.00153237e+01  2.80e-12 7.28e-12  5.33e-04     0s
  14   6.11958808e+01  6.06896947e+01  1.19e-12 1.82e-12  1.36e-04     0s
  15   6.10504801e+01  6.08480841e+01  1.88e-12 1.82e-12  5.45e-05     0s
  16   6.09694929e+01  6.08980245e+01  2.56e-11 3.64e-12  1.92e-05     0s
  17   6.09483777e+01  6.09352272e+01  1.27e-11 3.64e-12  3.54e-06     0s
  18   6.09446196e+01  6.09412610e+01  1.08e-11 3.64e-12  9.04e-07     0s
  19   6.09441298e+01  6.09431307e+01  7.39e-12 3.64e-12  2.69e-07     0s
  20   6.09439970e+01  6.09439016e+01  9.67e-12 7.28e-12  2.57e-08     0s
  21   6.09439805e+01  6.09439735e+01  5.42e-11 3.64e-12  1.89e-09     0s
  22   6.09439763e+01  6.09439763e+01  5.94e-11 7.28e-12  4.60e-12     0s

Barrier solved model in 22 iterations and 0.32 seconds (0.06 work units)
Optimal objective 6.09439763e+01


Root relaxation: objective 6.094398e+01, 191 iterations, 0.24 seconds (0.04 work units)

    Nodes    |    Current Node    |     Objective Bounds      |     Work
 Expl Unexpl |  Obj  Depth IntInf | Incumbent    BestBd   Gap | It/Node Time

     0     0   60.94398    0   11  102.17053   60.94398  40.4%     -    0s
H    0     0                      91.0376455   61.19056  32.8%     -    0s
     0     0   61.19056    0   13   91.03765   61.19056  32.8%     -    0s
     0     0   61.24095    0   13   91.03765   61.24095  32.7%     -    0s
H    0     0                      86.8651820   61.24095  29.5%     -    0s
H    0     0                      84.0438343   61.58311  26.7%     -    0s
     0     0   61.58434    0   11   84.04383   61.58434  26.7%     -    0s
     0     0   61.58434    0   11   84.04383   61.58434  26.7%     -    0s
H    0     0                      80.1800900   61.58434  23.2%     -    0s
H    0     0                      79.8125576   61.58434  22.8%     -    0s
     0     0   61.59070    0   10   79.81256   61.59070  22.8%     -    0s
     0     0   62.10517    0   10   79.81256   62.10517  22.2%     -    0s
     0     0   63.11357    0   10   79.81256   63.11357  20.9%     -    0s
     0     0   63.11357    0    8   79.81256   63.11357  20.9%     -    0s
     0     0   63.52466    0    8   79.81256   63.52466  20.4%     -    0s
H    0     0                      72.7533891   63.52466  12.7%     -    0s
     0     2   63.52466    0    8   72.75339   63.52466  12.7%     -    0s

Cutting planes:
  Gomory: 1
  Implied bound: 2
  MIR: 32
  Relax-and-lift: 1

Explored 933 nodes (23193 simplex iterations) in 1.86 seconds (1.67 work units)
Thread count was 36 (of 36 available processors)

Solution count 7: 72.7534 79.8126 80.1801 ... 102.171

Optimal solution found (tolerance 1.00e-02)
Best objective 7.275338911708e+01, best bound 7.228971204078e+01, gap 0.6373%

Gurobi 9.5.0 (linux64) logging started Fri Nov 24 17:11:34 2023

Set parameter LogFile to value "/lustre1/scratch/348/vsc34888/JointResearch/05.Models/06.Benchmarking/E.Representative_days_based_on_Line_Benefits_OptModel/RTS24_mod1_ByStages_nc10/openStarNet_RTS24_mod1_ByStages_nc10.log"
Set parameter Method to value 2
Set parameter MIPFocus to value 1
Set parameter Presolve to value 2
Set parameter RINS to value 100
Set parameter MIPGap to value 0.01
Set parameter Threads to value 36
Set parameter TimeLimit to value 259200
Set parameter IterationLimit to value 760000000
No parameters matching 'relax_integrality' found
Gurobi Optimizer version 9.5.0 build v9.5.0rc5 (linux64)
Thread count: 36 physical cores, 36 logical processors, using up to 36 threads
Optimize a model with 3908 rows, 2641 columns and 9712 nonzeros
Model fingerprint: 0x49691ad9
Coefficient statistics:
  Matrix range     [1e-03, 2e+03]
  Objective range  [1e+00, 1e+00]
  Bounds range     [6e-05, 2e+00]
  RHS range        [6e-05, 2e+01]
Presolve removed 3202 rows and 1420 columns
Presolve time: 0.00s
Presolved: 706 rows, 1232 columns, 2998 nonzeros

Ordering time: 0.00s

Barrier statistics:
 AA' NZ     : 1.631e+03
 Factor NZ  : 5.841e+03 (roughly 1 MB of memory)
 Factor Ops : 7.526e+04 (less than 1 second per iteration)
 Threads    : 1

                  Objective                Residual
Iter       Primal          Dual         Primal    Dual     Compl     Time
   0   6.29435461e+05 -2.40747352e+07  4.40e+00 4.79e+03  5.71e+04     0s
   1   6.52845686e+04 -1.14440699e+07  3.64e-01 6.09e-11  8.19e+03     0s
   2   3.37659369e+04 -2.10484131e+06  1.04e-01 4.04e-11  1.30e+03     0s
   3   1.73017162e+04 -1.59899158e+05  5.59e-04 5.28e-11  8.68e+01     0s
   4   4.34563060e+03 -1.30870329e+04  1.74e-12 2.91e-11  8.51e+00     0s
   5   5.10378411e+02 -1.64641652e+03  3.09e-13 1.46e-11  1.05e+00     0s
   6   2.95168786e+02 -6.60797143e+02  2.31e-13 1.46e-11  4.67e-01     0s
   7   1.27156987e+02 -1.64867317e+02  1.41e-13 1.82e-12  1.43e-01     0s
   8   8.07831056e+01  4.36069281e+01  6.32e-13 3.64e-12  1.82e-02     0s
   9   7.33616759e+01  6.79639932e+01  1.14e-12 1.46e-11  2.64e-03     0s
  10   7.29951975e+01  7.11803512e+01  1.07e-12 1.46e-11  8.86e-04     0s
  11   7.28090835e+01  7.22083176e+01  3.10e-12 7.28e-12  2.93e-04     0s
  12   7.27773554e+01  7.26496179e+01  1.57e-12 7.28e-12  6.24e-05     0s
  13   7.27558622e+01  7.27421029e+01  5.79e-13 7.28e-12  6.72e-06     0s
  14   7.27534928e+01  7.27526175e+01  1.63e-12 1.46e-11  4.27e-07     0s
  15   7.27533971e+01  7.27533725e+01  1.10e-12 7.28e-12  1.20e-08     0s
  16   7.27533891e+01  7.27533891e+01  3.78e-13 7.28e-12  2.68e-14     0s

Barrier solved model in 16 iterations and 0.02 seconds (0.01 work units)
Optimal objective 7.27533891e+01

Crossover log...

     135 DPushes remaining with DInf 0.0000000e+00                 0s

      36 PPushes remaining with PInf 0.0000000e+00                 0s
       0 PPushes remaining with PInf 0.0000000e+00                 0s

  Push phase complete: Pinf 0.0000000e+00, Dinf 5.8583588e-13      0s

Iteration    Objective       Primal Inf.    Dual Inf.      Time
      39    7.2753389e+01   0.000000e+00   0.000000e+00      0s

Use crossover to convert LP symmetric solution to basic solution...
Crossover log...

      22 PPushes remaining with PInf 0.0000000e+00                 0s
       0 PPushes remaining with PInf 0.0000000e+00                 0s

  Push phase complete: Pinf 0.0000000e+00, Dinf 6.5536832e-13      0s

Iteration    Objective       Primal Inf.    Dual Inf.      Time
      64    7.2753389e+01   0.000000e+00   0.000000e+00      0s

Solved in 64 iterations and 0.02 seconds (0.01 work units)
Optimal objective  7.275338912e+01
